<number of tasks>
20


<number of equipment>
5


<cycle time>
1000


<investment costs>
1,18134
2,19564
3,23622
4,10760
5,9320


<task times>
1,207,-1,-1,376,320
2,355,380,171,-1,-1
3,128,-1,-1,227,152
4,255,252,234,-1,-1
5,197,185,110,-1,-1
6,-1,193,149,-1,-1
7,254,-1,-1,322,391
8,261,-1,-1,454,423
9,251,-1,-1,378,381
10,285,305,322,-1,-1
11,207,-1,-1,147,177
12,246,220,167,-1,-1
13,224,-1,-1,220,201
14,-1,185,155,-1,-1
15,262,-1,-1,355,413
16,251,-1,-1,281,351
17,439,272,314,-1,-1
18,276,-1,-1,331,410
19,249,227,160,-1,-1
20,-1,161,110,-1,-1


<precedence relations>
1,5
2,5
3,4
3,5
4,6
5,6
6,7
6,8
6,9
7,10
7,11
8,11
8,12
9,10
9,14
10,12
11,13
11,14
12,15
12,18
13,15
13,16
14,15
14,18
15,17
16,17
16,18
17,19
17,20
18,19


<task types>
1,3
2,2
3,3
4,2
5,2
6,1
7,3
8,3
9,3
10,2
11,3
12,2
13,3
14,1
15,3
16,3
17,2
18,3
19,2
20,1


<line depot>
1,4
2,3
3,0
4,1
5,2


<processing costs>
1,14400
2,14400
3,14400
4,7200
5,7200


<saving costs>
1,1813
2,1956
3,2362
4,1076
5,932


<end>
